\ENCODING=ISO-8859-1
\Problem name: IloCplex

Minimize
 obj: 1000000000000 x1 + 1000000000000 x2 + 1000000000000 x3 + 1000000000000 x4
      + 1000000000000 x5 + 1000000000000 x6 + 1000000000000 x7
      + 1000000000000 x8 + 1000000000000 x9 + 1000000000000 x10
      + 1000000000000 x11 + 1000000000000 x12 + 1000000000000 x13
      + 1000000000000 x14 + 1000000000000 x15 + 1000000000000 x16
      + 1000000000000 x17 + 1000000000000 x18 + 1000000000000 x19
      + 1000000000000 x20 + 1000000000000 x21 + 1000000000000 x22
      + 1000000000000 x23 + 1000000000000 x24 + 1000000000000 x25
      + 1000000000000 x26 + 1000000000000 x27 + 1000000000000 x28
      + 1000000000000 x29 + 1000000000000 x30 + 1000000000000 x31
      + 1000000000000 x32 + 1000000000000 x33 + 1000000000000 x34
      + 1000000000000 x35 + 1000000000000 x36 + 1000000000000 x37
      + 1000000000000 x38 + 1000000000000 x39 + 1000000000000 x40
      + 1000000000000 x41 + 1000000000000 x42 + 1000000000000 x43
      + 1000000000000 x44 + 1000000000000 x45 + 1000000000000 x46
      + 1000000000000 x47 + 1000000000000 x48 + 1000000000000 x49
      + 1000000000000 x50 + x51 + x52 + x53 + x54 + x55 + x56 + x57 + x58 + x59
      + x60 + x61 + x62 + x63 + x64 + x65 + x66 + x67 + x68 + x69 + x70 + x71
      + x72 + x73 + x74 + x75 + x76 + x77 + x78 + x79 + x80 + x81 + x82 + x83
      + x84 + x85 + x86 + x87 + x88 + x89 + x90 + x91 + x92 + x93 + x94 + x95
      + x96 + x97 + x98 + x99 + x100 + x101 + x102 + x103 + x104 + x105 + x106
      + x107 + x108 + x109 + x110 + x111 + x112 + x113 + x114 + x115 + x116
      + x117 + x118 + x119 + x120 + x121 + x122 + x123 + x124 + x125 + x126
      + x127 + x128 + x129 + x130 + x131 + x132 + x133 + x134 + x135 + x136
      + x137 + x138 + x139 + x140 + x141 + x142 + x143 + x144 + x145 + x146
      + x147 + x148 + x149 + x150 + x151 + x152 + x153 + x154 + x155 + x156
      + x157 + x158 + x159 + x160 + x161 + x162 + x163 + x164 + x165 + x166
      + x167 + x168 + x169 + x170 + x171 + x172 + x173 + x174 + x175 + x176
      + x177 + x178 + x179 + x180 + x181 + x182 + x183 + x184 + x185 + x186
      + x187 + x188 + x189 + x190 + x191 + x192 + x193
Subject To
 c1:  x1 + x122 + x160  = 1
 c2:  x2 + x148  = 1
 c3:  x3 + x149  = 1
 c4:  x4 + x150  = 1
 c5:  x5 + x151  = 1
 c6:  x6 + x152  = 1
 c7:  x7 + x153  = 1
 c8:  x8 + x154  = 1
 c9:  x9 + x155 + x186  = 1
 c10: x10 + x156 + x172 + x185  = 1
 c11: x11 + x157 + x175 + x184  = 1
 c12: x12 + x158 + x165 + x170  = 1
 c13: x13 + x142 + x159 + x164 + x182  = 1
 c14: x14 + x133 + x141 + x144 + x163 + x176  = 1
 c15: x15 + x138 + x140 + x173 + x189  = 1
 c16: x16 + x116 + x135 + x162  = 1
 c17: x17 + x124 + x129 + x161 + x168  = 1
 c18: x18 + x112 + x121  = 1
 c19: x19 + x97 + x103 + x115 + x177  = 1
 c20: x20 + x117 + x120 + x125 + x136 + x178  = 1
 c21: x21 + x104 + x107 + x132 + x143 + x166 + x169  = 1
 c22: x22 + x113 + x114 + x119 + x128 + x191  = 1
 c23: x23 + x108 + x109 + x110 + x137 + x167 + x174  = 1
 c24: x24 + x98 + x102 + x134 + x171 + x180 + x181 + x190  = 1
 c25: x25 + x95 + x97 + x108 + x127 + x191  = 1
 c26: x26 + x82 + x94 + x95 + x98 + x118 + x146 + x147 + x167 + x179 + x181
      + x187  = 1
 c27: x27 + x83 + x93 + x111 + x117 + x126 + x128 + x183  = 1
 c28: x28 + x87 + x93 + x94 + x96 + x99 + x100 + x111 + x113 + x130 + x136
      + x188  = 1
 c29: x29 + x85 + x87 + x90 + x101 + x103 + x112  = 1
 c30: x30 + x80 + x83 + x96 + x106 + x119 + x121 + x131  = 1
 c31: x31 + x72 + x80 + x86 + x91 + x110 + x118 + x126 + x130 + x131 + x169
      + x192  = 1
 c32: x32 + x76 + x81 + x84 + x86 + x134 + x145 + x147 + x180 + x183 + x187
      + x193  = 1
 c33: x33 + x74 + x76 + x79 + x82 + x89 + x106 + x123 + x132 + x177 + x178  = 1
 c34: x34 + x72 + x73 + x74 + x75 + x78 + x89 + x90 + x92 + x105 + x107 + x125
      + x137 + x179 + x188 + x190 + x192 + x193  = 1
 c35: x35 + x68 + x69 + x71 + x85 + x88 + x92 + x104 + x129  = 1
 c36: x36 + x68 + x69 + x70 + x73 + x77 + x81 + x102 + x123 + x145 + x146
      + x161 + x162  = 1
 c37: x37 + x64 + x65 + x67 + x68 + x71 + x77 + x86 + x99 + x100 + x105 + x109
      + x115 + x127 + x139 + x168 + x171 + x173 + x179  = 1
 c38: x38 + x63 + x64 + x65 + x67 + x69 + x78 + x84 + x91 + x101 + x105 + x106
      + x120 + x139 + x143 + x174 + x183 + x188 + x189  = 1
 c39: x39 + x59 + x60 + x61 + x62 + x63 + x66 + x67 + x70 + x71 + x77 + x79
      + x88 + x90 + x91 + x111 + x114 + x116 + x163  = 1
 c40: x40 + x56 + x57 + x58 + x59 + x60 + x62 + x64 + x66 + x70 + x75 + x78
      + x79 + x83 + x99 + x118 + x139 + x145 + x166 + x171 + x174 + x176 + x187
      + x192 + x193  = 1
 c41: x41 + x56 + x57 + x58 + x59 + x60 + x61 + x63 + x65 + x73 + x76 + x85
      + x87 + x100 + x120 + x138 + x170  = 1
 c42: x42 + x51 + x52 + x53 + x54 + x55 + x56 + x57 + x58 + x61 + x63 + x66
      + x72 + x81 + x88 + x89 + x92 + x100 + x101 + x114 + x115 + x127 + x130
      + x139 + x141 + x142 + x166 + x172  = 1
 c43: x43 + x51 + x52 + x53 + x54 + x55 + x56 + x57 + x58 + x59 + x67 + x75
      + x77 + x79 + x80 + x84 + x88 + x91 + x92 + x101 + x105 + x109 + x123
      + x131 + x135 + x140 + x175 + x185  = 1
 c44: x44 + x51 + x52 + x53 + x54 + x55 + x56 + x57 + x61 + x62 + x65 + x66
      + x74 + x78 + x82 + x84 + x85 + x96 + x104 + x124 + x133 + x146 + x164
      + x165 + x180 + x182  = 1
 c45: x45 + x51 + x52 + x53 + x54 + x55 + x56 + x62 + x63 + x64 + x71 + x73
      + x75 + x81 + x89 + x94 + x99 + x126 + x131 + x134 + x135 + x144 + x146
      + x184 + x186  = 1
 c46: x46 + x51 + x52 + x53 + x54 + x55 + x58 + x59 + x60 + x66 + x69 + x74
      + x80 + x88 + x93 + x95 + x107 + x110 + x124 + x190  = 1
 c47: x47 + x51 + x52 + x53 + x54 + x58 + x61 + x62 + x65 + x67 + x70 + x75
      + x76 + x82 + x93 + x96 + x102 + x119 + x126 + x137 + x139 + x140 + x143
      + x144 + x169 + x178 + x181  = 1
 c48: x48 + x51 + x52 + x53 + x59 + x60 + x61 + x64 + x70 + x71 + x72 + x84
      + x87 + x98 + x123 + x125 + x127 + x133 + x164 + x166 + x167 + x193  = 1
 c49: x49 + x51 + x52 + x59 + x60 + x62 + x63 + x65 + x68 + x72 + x75 + x77
      + x86 + x88 + x94 + x96 + x101 + x103 + x108 + x113 + x132 + x137 + x141
      + x142 + x184 + x185  = 1
 c50: x50 + x51 + x59 + x61 + x62 + x64 + x67 + x68 + x73 + x74 + x79 + x80
      + x84 + x90 + x93 + x94 + x100 + x108 + x114 + x115 + x117 + x122 + x177
       = 1
Bounds
      x51 = 0
      x52 = 0
      x53 = 0
      x54 = 0
      x55 = 0
      x56 = 0
      x59 = 0
      x60 = 0
      x61 = 0
      x62 = 0
      x63 = 0
      x64 = 0
      x66 = 0
      x67 = 0
      x70 = 0
      x71 = 0
      x72 = 0
      x73 = 0
      x74 = 0
      x75 = 0
      x76 = 0
      x77 = 0
      x78 = 0
      x79 = 0
      x80 = 0
      x81 = 0
      x82 = 0
      x86 = 0
      x87 = 0
      x88 = 0
      x89 = 0
      x90 = 0
      x91 = 0
      x92 = 0
      x93 = 0
      x94 = 0
      x95 = 0
      x96 = 0
      x98 = 0
      x99 = 0
      x100 = 0
      x104 = 0
      x105 = 0
      x106 = 0
      x107 = 0
      x108 = 0
      x109 = 0
      x111 = 0
      x113 = 0
      x114 = 0
      x116 = 0
      x117 = 0
      x118 = 0
      x120 = 0
      x123 = 0
      x125 = 0
      x126 = 0
      x130 = 0
      x131 = 0
      x133 = 0
      x134 = 0
      x135 = 0
      x137 = 0
      x141 = 0
      x143 = 0
      x144 = 0
      x146 = 0
      x147 = 0
      x155 = 0
      x166 = 0
      x167 = 0
      x169 = 0
      x174 = 0
      x176 = 0
      x177 = 0
      x178 = 0
      x181 = 0
      x184 = 0
      x187 = 0
      x188 = 0
      x190 = 0
      x192 = 0
      x193 = 0
End
